language Essence 1.3
letting nnodes be 10
letting nrings be 6
letting capacity be 5
letting demand be {{1, 9},
{1, 10},
{2, 4},
{2, 6},
{2, 9},
{3, 5},
{3, 10},
{4, 8},
{5, 7},
{5, 8},
{5, 9},
{6, 8},
{6, 10},
{7, 8},
{9, 10}}
